# SCIP version 3.0.0

sepa/base/enable = TRUE

sepa/base/genobjconvex = TRUE

sepa/base/objconvex = 1.0

sepa/base/enableobj = FALSE

sepa/base/enableobjround = FALSE

sepa/base/enableposslack = TRUE

sepa/base/posslackexp = 100

lp/solvefreq = 0

lp/iterlim = -1

lp/rootiterlim = -1

conflict/enable = FALSE

detectors/random/enabled = FALSE

pricing/masterpricer/stabilization = FALSE

separating/poolfreq = -1
